p cnf 14 39
4 2 -3 0
-4 -2 0
-4 3 0
-5 1 2 0
5 -1 0
5 -2 0
-6 2 7 0
6 -2 0
6 -7 0
7 -8 -2 0
-7 8 0
-7 2 0
8 -3 -1 0
-8 3 0
-8 1 0
9 2 -10 0
-9 -2 0
-9 10 0
-10 3 1 0
10 -3 0
10 -1 0
11 -2 -1 0
-11 2 0
-11 1 0
12 -13 -14 0
-12 13 0
-12 14 0
-13 2 2 0
13 -2 0
13 -2 0
14 -3 -1 0
-14 3 0
-14 1 0
-4 0
-5 0
6 0
9 0
11 0
12 0
